BAYES
256
2 2 2 2 2 2 2 2 2 2 2 2 2 2 2 2 2 2 2 2 2 2 2 2 2 2 2 2 2 2 2 2 2 2 2 2 2 2 2 2 2 2 2 2 2 2 2 2 2 2 2 2 2 2 2 2 2 2 2 2 2 2 2 2 2 2 2 2 2 2 2 2 2 2 2 2 2 2 2 2 2 2 2 2 2 2 2 2 2 2 2 2 2 2 2 2 2 2 2 2 2 2 2 2 2 2 2 2 2 2 2 2 2 2 2 2 2 2 2 2 2 2 2 2 2 2 2 2 2 2 2 2 2 2 2 2 2 2 2 2 2 2 2 2 2 2 2 2 2 2 2 2 2 2 2 2 2 2 2 2 2 2 2 2 2 2 2 2 2 2 2 2 2 2 2 2 2 2 2 2 2 2 2 2 2 2 2 2 2 2 2 2 2 2 2 2 2 2 2 2 2 2 2 2 2 2 2 2 2 2 2 2 2 2 2 2 2 2 2 2 2 2 2 2 2 2 2 2 2 2 2 2 2 2 2 2 2 2 2 2 2 2 2 2 2 2 2 2 2 2 2 2 2 2 2 2
256
1 0
2 0 1
2 1 2
2 2 3
2 3 4
2 4 5
2 5 6
2 6 7
2 7 8
2 8 9
2 9 10
2 10 11
2 11 12
2 12 13
2 13 14
2 14 15
2 0 16
3 1 16 17
3 2 17 18
3 3 18 19
3 4 19 20
3 5 20 21
3 6 21 22
3 7 22 23
3 8 23 24
3 9 24 25
3 10 25 26
3 11 26 27
3 12 27 28
3 13 28 29
3 14 29 30
3 15 30 31
2 16 32
3 17 32 33
3 18 33 34
3 19 34 35
3 20 35 36
3 21 36 37
3 22 37 38
3 23 38 39
3 24 39 40
3 25 40 41
3 26 41 42
3 27 42 43
3 28 43 44
3 29 44 45
3 30 45 46
3 31 46 47
2 32 48
3 33 48 49
3 34 49 50
3 35 50 51
3 36 51 52
3 37 52 53
3 38 53 54
3 39 54 55
3 40 55 56
3 41 56 57
3 42 57 58
3 43 58 59
3 44 59 60
3 45 60 61
3 46 61 62
3 47 62 63
2 48 64
3 49 64 65
3 50 65 66
3 51 66 67
3 52 67 68
3 53 68 69
3 54 69 70
3 55 70 71
3 56 71 72
3 57 72 73
3 58 73 74
3 59 74 75
3 60 75 76
3 61 76 77
3 62 77 78
3 63 78 79
2 64 80
3 65 80 81
3 66 81 82
3 67 82 83
3 68 83 84
3 69 84 85
3 70 85 86
3 71 86 87
3 72 87 88
3 73 88 89
3 74 89 90
3 75 90 91
3 76 91 92
3 77 92 93
3 78 93 94
3 79 94 95
2 80 96
3 81 96 97
3 82 97 98
3 83 98 99
3 84 99 100
3 85 100 101
3 86 101 102
3 87 102 103
3 88 103 104
3 89 104 105
3 90 105 106
3 91 106 107
3 92 107 108
3 93 108 109
3 94 109 110
3 95 110 111
2 96 112
3 97 112 113
3 98 113 114
3 99 114 115
3 100 115 116
3 101 116 117
3 102 117 118
3 103 118 119
3 104 119 120
3 105 120 121
3 106 121 122
3 107 122 123
3 108 123 124
3 109 124 125
3 110 125 126
3 111 126 127
2 112 128
3 113 128 129
3 114 129 130
3 115 130 131
3 116 131 132
3 117 132 133
3 118 133 134
3 119 134 135
3 120 135 136
3 121 136 137
3 122 137 138
3 123 138 139
3 124 139 140
3 125 140 141
3 126 141 142
3 127 142 143
2 128 144
3 129 144 145
3 130 145 146
3 131 146 147
3 132 147 148
3 133 148 149
3 134 149 150
3 135 150 151
3 136 151 152
3 137 152 153
3 138 153 154
3 139 154 155
3 140 155 156
3 141 156 157
3 142 157 158
3 143 158 159
2 144 160
3 145 160 161
3 146 161 162
3 147 162 163
3 148 163 164
3 149 164 165
3 150 165 166
3 151 166 167
3 152 167 168
3 153 168 169
3 154 169 170
3 155 170 171
3 156 171 172
3 157 172 173
3 158 173 174
3 159 174 175
2 160 176
3 161 176 177
3 162 177 178
3 163 178 179
3 164 179 180
3 165 180 181
3 166 181 182
3 167 182 183
3 168 183 184
3 169 184 185
3 170 185 186
3 171 186 187
3 172 187 188
3 173 188 189
3 174 189 190
3 175 190 191
2 176 192
3 177 192 193
3 178 193 194
3 179 194 195
3 180 195 196
3 181 196 197
3 182 197 198
3 183 198 199
3 184 199 200
3 185 200 201
3 186 201 202
3 187 202 203
3 188 203 204
3 189 204 205
3 190 205 206
3 191 206 207
2 192 208
3 193 208 209
3 194 209 210
3 195 210 211
3 196 211 212
3 197 212 213
3 198 213 214
3 199 214 215
3 200 215 216
3 201 216 217
3 202 217 218
3 203 218 219
3 204 219 220
3 205 220 221
3 206 221 222
3 207 222 223
2 208 224
3 209 224 225
3 210 225 226
3 211 226 227
3 212 227 228
3 213 228 229
3 214 229 230
3 215 230 231
3 216 231 232
3 217 232 233
3 218 233 234
3 219 234 235
3 220 235 236
3 221 236 237
3 222 237 238
3 223 238 239
2 224 240
3 225 240 241
3 226 241 242
3 227 242 243
3 228 243 244
3 229 244 245
3 230 245 246
3 231 246 247
3 232 247 248
3 233 248 249
3 234 249 250
3 235 250 251
3 236 251 252
3 237 252 253
3 238 253 254
3 239 254 255

2
0.86413 0.13587
4
1.0 0.0 0.0 1.0
4
0.0 1.0 1.0 0.0
4
1.0 0.0 0.0 1.0
4
0.0 1.0 1.0 0.0
4
1.0 0.0 0.0 1.0
4
1.0 0.0 0.0 1.0
4
0.0 1.0 1.0 0.0
4
1.0 0.0 0.0 1.0
4
1.0 0.0 0.0 1.0
4
1.0 0.0 0.0 1.0
4
0.0 1.0 1.0 0.0
4
0.0 1.0 1.0 0.0
4
0.0 1.0 1.0 0.0
4
0.0 1.0 1.0 0.0
4
0.642847 0.357153 0.868834 0.131166
4
0.0 1.0 1.0 0.0
8
0.0 1.0 0.0 1.0 0.0 1.0 1.0 0.0
8
0.0 1.0 0.0 1.0 1.0 0.0 1.0 0.0
8
1.0 0.0 1.0 0.0 0.0 1.0 0.0 1.0
8
1.0 0.0 1.0 0.0 0.0 1.0 1.0 0.0
8
0.0 1.0 1.0 0.0 1.0 0.0 1.0 0.0
8
1.0 0.0 0.0 1.0 0.0 1.0 1.0 0.0
8
1.0 0.0 1.0 0.0 0.0 1.0 1.0 0.0
8
1.0 0.0 1.0 0.0 1.0 0.0 0.0 1.0
8
0.0 1.0 1.0 0.0 0.0 1.0 0.0 1.0
8
0.0 1.0 1.0 0.0 0.0 1.0 1.0 0.0
8
1.0 0.0 0.0 1.0 1.0 0.0 1.0 0.0
8
0.0 1.0 0.0 1.0 0.0 1.0 1.0 0.0
8
1.0 0.0 0.0 1.0 0.0 1.0 0.0 1.0
8
1.0 0.0 1.0 0.0 0.0 1.0 1.0 0.0
8
0.0 1.0 1.0 0.0 1.0 0.0 1.0 0.0
4
1.0 0.0 0.0 1.0
8
0.0 1.0 0.0 1.0 0.0 1.0 1.0 0.0
8
0.0833757 0.916624 0.861485 0.138515 0.846618 0.153382 0.48984 0.51016
8
1.0 0.0 0.0 1.0 0.0 1.0 1.0 0.0
8
0.906554 0.0934456 0.528483 0.471517 0.206689 0.793311 0.578052 0.421948
8
0.0 1.0 0.0 1.0 1.0 0.0 1.0 0.0
8
0.28522 0.71478 0.157029 0.842971 0.35974 0.64026 0.582611 0.417389
8
0.0 1.0 0.0 1.0 1.0 0.0 0.0 1.0
8
1.0 0.0 0.0 1.0 0.0 1.0 1.0 0.0
8
1.0 0.0 0.0 1.0 0.0 1.0 1.0 0.0
8
0.788424 0.211576 0.111285 0.888715 0.369444 0.630556 0.995113 0.00488727
8
0.0 1.0 1.0 0.0 1.0 0.0 1.0 0.0
8
0.666618 0.333382 0.403661 0.596339 0.0796588 0.920341 0.0263582 0.973642
8
0.384854 0.615146 0.877777 0.122223 0.193191 0.806809 0.925858 0.0741418
8
1.0 0.0 1.0 0.0 0.0 1.0 1.0 0.0
8
0.0 1.0 1.0 0.0 0.0 1.0 0.0 1.0
4
0.0394442 0.960556 0.763715 0.236285
8
0.408889 0.591111 0.758828 0.241172 0.619871 0.380129 0.00931663 0.990683
8
1.0 0.0 0.0 1.0 0.0 1.0 0.0 1.0
8
0.0 1.0 0.0 1.0 1.0 0.0 1.0 0.0
8
0.710881 0.289119 0.960888 0.0391123 0.296744 0.703256 0.58843 0.41157
8
0.0 1.0 1.0 0.0 1.0 0.0 1.0 0.0
8
0.182673 0.817327 0.445592 0.554408 0.00323895 0.996761 0.946389 0.0536114
8
0.0 1.0 0.0 1.0 1.0 0.0 1.0 0.0
8
1.0 0.0 0.0 1.0 0.0 1.0 1.0 0.0
8
0.0 1.0 1.0 0.0 1.0 0.0 1.0 0.0
8
0.0 1.0 0.0 1.0 0.0 1.0 1.0 0.0
8
0.909443 0.0905568 0.590467 0.409533 0.115177 0.884823 0.535785 0.464215
8
0.0 1.0 1.0 0.0 1.0 0.0 1.0 0.0
8
0.949456 0.0505444 0.353499 0.646501 0.391072 0.608928 0.302559 0.697441
8
1.0 0.0 0.0 1.0 0.0 1.0 1.0 0.0
8
0.558845 0.441155 0.619202 0.380798 0.408798 0.591202 0.945952 0.054048
4
0.978511 0.0214895 0.629803 0.370197
8
0.803665 0.196335 0.537598 0.462402 0.735455 0.264545 0.394132 0.605868
8
0.0 1.0 0.0 1.0 1.0 0.0 1.0 0.0
8
0.0 1.0 0.0 1.0 0.0 1.0 1.0 0.0
8
0.866595 0.133405 0.446879 0.553121 0.678306 0.321694 0.806868 0.193132
8
1.0 0.0 1.0 0.0 0.0 1.0 1.0 0.0
8
0.290785 0.709215 0.375354 0.624646 0.86034 0.13966 0.920589 0.0794112
8
0.0 1.0 1.0 0.0 0.0 1.0 1.0 0.0
8
0.0 1.0 1.0 0.0 1.0 0.0 1.0 0.0
8
1.0 0.0 0.0 1.0 1.0 0.0 1.0 0.0
8
0.847654 0.152346 0.712725 0.287275 0.661413 0.338587 0.520712 0.479288
8
0.0 1.0 1.0 0.0 1.0 0.0 0.0 1.0
8
0.134332 0.865668 0.31149 0.68851 0.735912 0.264088 0.0549207 0.945079
8
0.0 1.0 0.0 1.0 0.0 1.0 1.0 0.0
8
0.0 1.0 1.0 0.0 0.0 1.0 1.0 0.0
8
0.942113 0.057887 0.189214 0.810786 0.964963 0.035037 0.342888 0.657112
4
1.0 0.0 0.0 1.0
8
1.0 0.0 0.0 1.0 1.0 0.0 1.0 0.0
8
0.704996 0.295004 0.278617 0.721383 0.90623 0.0937705 0.580569 0.419431
8
0.0 1.0 1.0 0.0 0.0 1.0 0.0 1.0
8
0.0 1.0 0.0 1.0 0.0 1.0 1.0 0.0
8
0.639042 0.360958 0.290708 0.709292 0.956405 0.0435949 0.616055 0.383945
8
1.0 0.0 1.0 0.0 0.0 1.0 1.0 0.0
8
0.30561 0.69439 0.881446 0.118554 0.477503 0.522497 0.740681 0.259319
8
0.182499 0.817501 0.0192986 0.980701 0.757768 0.242232 0.763068 0.236932
8
0.0 1.0 1.0 0.0 1.0 0.0 1.0 0.0
8
0.881096 0.118904 0.886316 0.113684 0.970402 0.029598 0.486144 0.513856
8
0.0 1.0 0.0 1.0 0.0 1.0 1.0 0.0
8
1.0 0.0 1.0 0.0 1.0 0.0 0.0 1.0
8
0.0 1.0 1.0 0.0 0.0 1.0 1.0 0.0
8
1.0 0.0 0.0 1.0 0.0 1.0 1.0 0.0
8
0.69342 0.30658 0.673284 0.326716 0.854249 0.145751 0.593538 0.406462
4
0.0 1.0 1.0 0.0
8
0.0 1.0 1.0 0.0 0.0 1.0 0.0 1.0
8
0.0 1.0 0.0 1.0 1.0 0.0 1.0 0.0
8
0.0 1.0 0.0 1.0 1.0 0.0 0.0 1.0
8
0.0 1.0 0.0 1.0 0.0 1.0 1.0 0.0
8
0.0 1.0 1.0 0.0 0.0 1.0 0.0 1.0
8
1.0 0.0 0.0 1.0 1.0 0.0 0.0 1.0
8
0.45842 0.54158 0.513711 0.486289 0.424825 0.575175 0.419199 0.580801
8
0.0 1.0 1.0 0.0 0.0 1.0 0.0 1.0
8
0.671365 0.328635 0.372468 0.627532 0.236815 0.763185 0.363955 0.636045
8
0.921129 0.0788709 0.557737 0.442263 0.399162 0.600838 0.434576 0.565424
8
0.896781 0.103219 0.959656 0.040344 0.690221 0.309779 0.0921958 0.907804
8
0.0 1.0 1.0 0.0 1.0 0.0 0.0 1.0
8
0.0 1.0 1.0 0.0 1.0 0.0 0.0 1.0
8
0.226332 0.773668 0.297384 0.702616 0.0987035 0.901296 0.40069 0.59931
8
0.0 1.0 0.0 1.0 1.0 0.0 1.0 0.0
4
0.0 1.0 1.0 0.0
8
1.0 0.0 0.0 1.0 1.0 0.0 1.0 0.0
8
0.555012 0.444988 0.677362 0.322638 0.00997026 0.99003 0.814448 0.185552
8
0.970865 0.0291346 0.227913 0.772087 0.822088 0.177912 0.179808 0.820192
8
0.0 1.0 0.0 1.0 1.0 0.0 0.0 1.0
8
0.0 1.0 0.0 1.0 0.0 1.0 1.0 0.0
8
0.0 1.0 0.0 1.0 1.0 0.0 1.0 0.0
8
0.0 1.0 0.0 1.0 1.0 0.0 1.0 0.0
8
1.0 0.0 0.0 1.0 1.0 0.0 0.0 1.0
8
0.453631 0.546369 0.114994 0.885006 0.981337 0.0186633 0.275719 0.724281
8
0.0 1.0 0.0 1.0 1.0 0.0 1.0 0.0
8
0.326055 0.673945 0.900566 0.0994337 0.292463 0.707537 0.855537 0.144463
8
1.0 0.0 1.0 0.0 1.0 0.0 0.0 1.0
8
1.0 0.0 0.0 1.0 1.0 0.0 0.0 1.0
8
1.0 0.0 1.0 0.0 1.0 0.0 0.0 1.0
8
0.173438 0.826562 0.693783 0.306217 0.0724752 0.927525 0.154775 0.845225
4
0.367277 0.632723 0.581716 0.418284
8
0.0 1.0 0.0 1.0 0.0 1.0 1.0 0.0
8
0.789568 0.210432 0.746131 0.253869 0.691208 0.308792 0.470208 0.529792
8
1.0 0.0 0.0 1.0 0.0 1.0 1.0 0.0
8
0.223746 0.776254 0.100637 0.899363 0.356792 0.643208 0.768099 0.231901
8
0.776807 0.223193 0.00825115 0.991749 0.871471 0.128529 0.950246 0.0497545
8
0.0 1.0 1.0 0.0 1.0 0.0 1.0 0.0
8
0.0 1.0 0.0 1.0 0.0 1.0 1.0 0.0
8
0.548191 0.451809 0.512487 0.487513 0.472067 0.527933 0.018399 0.981601
8
0.0 1.0 1.0 0.0 0.0 1.0 1.0 0.0
8
1.0 0.0 1.0 0.0 0.0 1.0 1.0 0.0
8
0.806428 0.193572 0.413617 0.586383 0.738236 0.261764 0.756674 0.243326
8
1.0 0.0 1.0 0.0 1.0 0.0 0.0 1.0
8
1.0 0.0 0.0 1.0 0.0 1.0 1.0 0.0
8
0.0 1.0 0.0 1.0 0.0 1.0 1.0 0.0
8
1.0 0.0 0.0 1.0 0.0 1.0 1.0 0.0
4
0.843821 0.156179 0.91449 0.0855099
8
0.873442 0.126558 0.319856 0.680144 0.687245 0.312755 0.67987 0.32013
8
1.0 0.0 1.0 0.0 0.0 1.0 0.0 1.0
8
1.0 0.0 1.0 0.0 0.0 1.0 0.0 1.0
8
0.178614 0.821386 0.49234 0.50766 0.605759 0.394241 0.291419 0.708581
8
0.753768 0.246232 0.87629 0.12371 0.221773 0.778227 0.617471 0.382529
8
0.392765 0.607235 0.894694 0.105306 0.759564 0.240436 0.236585 0.763415
8
0.580045 0.419955 0.110027 0.889973 0.12904 0.87096 0.26729 0.73271
8
0.862513 0.137487 0.69277 0.30723 0.22644 0.77356 0.711637 0.288363
8
0.524678 0.475322 0.347947 0.652053 0.901501 0.0984989 0.371347 0.628653
8
1.0 0.0 0.0 1.0 1.0 0.0 0.0 1.0
8
0.373157 0.626843 0.231264 0.768736 0.71767 0.28233 0.594929 0.405071
8
0.609528 0.390472 0.987694 0.0123059 0.743428 0.256572 0.369093 0.630907
8
1.0 0.0 1.0 0.0 0.0 1.0 1.0 0.0
8
0.0 1.0 0.0 1.0 1.0 0.0 0.0 1.0
8
0.0 1.0 0.0 1.0 1.0 0.0 0.0 1.0
4
1.0 0.0 0.0 1.0
8
0.16201 0.83799 0.960364 0.0396365 0.638009 0.361991 0.535167 0.464833
8
0.0 1.0 1.0 0.0 0.0 1.0 1.0 0.0
8
0.0 1.0 1.0 0.0 1.0 0.0 0.0 1.0
8
1.0 0.0 1.0 0.0 0.0 1.0 1.0 0.0
8
1.0 0.0 0.0 1.0 1.0 0.0 0.0 1.0
8
0.0 1.0 0.0 1.0 1.0 0.0 1.0 0.0
8
0.0 1.0 1.0 0.0 0.0 1.0 1.0 0.0
8
0.364683 0.635317 0.0635286 0.936471 0.885756 0.114244 0.405044 0.594956
8
0.0 1.0 0.0 1.0 0.0 1.0 1.0 0.0
8
0.0 1.0 0.0 1.0 1.0 0.0 1.0 0.0
8
0.105509 0.894491 0.5554 0.4446 0.973793 0.0262072 0.923531 0.0764685
8
1.0 0.0 0.0 1.0 0.0 1.0 1.0 0.0
8
1.0 0.0 1.0 0.0 1.0 0.0 0.0 1.0
8
1.0 0.0 0.0 1.0 0.0 1.0 1.0 0.0
8
0.0 1.0 1.0 0.0 0.0 1.0 0.0 1.0
4
1.0 0.0 0.0 1.0
8
1.0 0.0 0.0 1.0 0.0 1.0 1.0 0.0
8
0.854751 0.145249 0.433212 0.566788 0.84579 0.15421 0.528844 0.471156
8
0.0 1.0 1.0 0.0 0.0 1.0 0.0 1.0
8
0.0 1.0 1.0 0.0 0.0 1.0 0.0 1.0
8
0.0 1.0 0.0 1.0 0.0 1.0 1.0 0.0
8
1.0 0.0 1.0 0.0 0.0 1.0 0.0 1.0
8
0.0 1.0 0.0 1.0 0.0 1.0 1.0 0.0
8
0.173651 0.826349 0.278372 0.721628 0.659255 0.340745 0.702494 0.297506
8
0.0 1.0 0.0 1.0 1.0 0.0 0.0 1.0
8
1.0 0.0 1.0 0.0 1.0 0.0 0.0 1.0
8
1.0 0.0 0.0 1.0 0.0 1.0 0.0 1.0
8
1.0 0.0 1.0 0.0 1.0 0.0 0.0 1.0
8
0.0338077 0.966192 0.396954 0.603046 0.836469 0.163531 0.352708 0.647292
8
1.0 0.0 0.0 1.0 1.0 0.0 1.0 0.0
8
0.0 1.0 0.0 1.0 1.0 0.0 1.0 0.0
4
0.0 1.0 1.0 0.0
8
0.0 1.0 1.0 0.0 1.0 0.0 0.0 1.0
8
1.0 0.0 0.0 1.0 0.0 1.0 1.0 0.0
8
0.530044 0.469956 0.641858 0.358142 0.934466 0.0655343 0.475308 0.524692
8
1.0 0.0 0.0 1.0 1.0 0.0 1.0 0.0
8
0.554731 0.445269 0.0940187 0.905981 0.2709 0.7291 0.783583 0.216417
8
1.0 0.0 0.0 1.0 1.0 0.0 1.0 0.0
8
1.0 0.0 0.0 1.0 1.0 0.0 1.0 0.0
8
0.270803 0.729197 0.497942 0.502058 0.517478 0.482522 0.898403 0.101597
8
0.0 1.0 0.0 1.0 0.0 1.0 1.0 0.0
8
0.0 1.0 1.0 0.0 1.0 0.0 1.0 0.0
8
0.79903 0.20097 0.354632 0.645368 0.0672175 0.932782 0.582613 0.417387
8
0.0 1.0 1.0 0.0 0.0 1.0 0.0 1.0
8
0.757673 0.242327 0.837223 0.162777 0.195538 0.804462 0.548598 0.451402
8
1.0 0.0 1.0 0.0 0.0 1.0 0.0 1.0
8
1.0 0.0 0.0 1.0 1.0 0.0 0.0 1.0
4
1.0 0.0 0.0 1.0
8
0.0 1.0 0.0 1.0 1.0 0.0 1.0 0.0
8
0.0 1.0 0.0 1.0 1.0 0.0 1.0 0.0
8
1.0 0.0 1.0 0.0 0.0 1.0 1.0 0.0
8
0.0 1.0 1.0 0.0 1.0 0.0 1.0 0.0
8
0.0 1.0 1.0 0.0 0.0 1.0 1.0 0.0
8
1.0 0.0 1.0 0.0 1.0 0.0 0.0 1.0
8
1.0 0.0 0.0 1.0 0.0 1.0 0.0 1.0
8
0.0 1.0 1.0 0.0 1.0 0.0 1.0 0.0
8
0.832623 0.167377 0.404221 0.595779 0.634087 0.365913 0.0895858 0.910414
8
0.341575 0.658425 0.542086 0.457914 0.650797 0.349203 0.723297 0.276703
8
0.0 1.0 1.0 0.0 1.0 0.0 1.0 0.0
8
0.495435 0.504565 0.520758 0.479242 0.660134 0.339866 0.662283 0.337717
8
1.0 0.0 1.0 0.0 0.0 1.0 0.0 1.0
8
0.762794 0.237206 0.487354 0.512646 0.452263 0.547737 0.575699 0.424301
8
0.0 1.0 1.0 0.0 0.0 1.0 1.0 0.0
4
1.0 0.0 0.0 1.0
8
0.383927 0.616073 0.950135 0.0498647 0.964924 0.0350761 0.751712 0.248288
8
1.0 0.0 1.0 0.0 0.0 1.0 0.0 1.0
8
0.0 1.0 0.0 1.0 0.0 1.0 1.0 0.0
8
0.0 1.0 1.0 0.0 1.0 0.0 1.0 0.0
8
0.0 1.0 1.0 0.0 0.0 1.0 1.0 0.0
8
0.62643 0.37357 0.73217 0.26783 0.320924 0.679076 0.35956 0.64044
8
0.237483 0.762517 0.743488 0.256512 0.909144 0.0908559 0.202407 0.797593
8
1.0 0.0 0.0 1.0 1.0 0.0 1.0 0.0
8
1.0 0.0 1.0 0.0 0.0 1.0 1.0 0.0
8
1.0 0.0 1.0 0.0 0.0 1.0 1.0 0.0
8
0.0 1.0 1.0 0.0 1.0 0.0 0.0 1.0
8
0.0 1.0 1.0 0.0 0.0 1.0 1.0 0.0
8
1.0 0.0 0.0 1.0 1.0 0.0 1.0 0.0
8
1.0 0.0 0.0 1.0 1.0 0.0 1.0 0.0
8
0.148281 0.851719 0.785241 0.214759 0.863759 0.136241 0.927719 0.0722809
4
0.0 1.0 1.0 0.0
8
0.667113 0.332887 0.944822 0.055178 0.689853 0.310147 0.947065 0.052935
8
1.0 0.0 1.0 0.0 0.0 1.0 0.0 1.0
8
0.160321 0.839679 0.708796 0.291204 0.985446 0.0145542 0.558171 0.441829
8
0.431822 0.568178 0.699509 0.300491 0.756085 0.243915 0.0806047 0.919395
8
1.0 0.0 0.0 1.0 1.0 0.0 0.0 1.0
8
1.0 0.0 0.0 1.0 1.0 0.0 1.0 0.0
8
0.853215 0.146785 0.0708911 0.929109 0.832588 0.167412 0.543069 0.456931
8
0.0 1.0 1.0 0.0 0.0 1.0 0.0 1.0
8
0.0 1.0 0.0 1.0 1.0 0.0 0.0 1.0
8
0.0 1.0 1.0 0.0 1.0 0.0 1.0 0.0
8
0.0 1.0 0.0 1.0 1.0 0.0 1.0 0.0
8
0.0 1.0 1.0 0.0 0.0 1.0 1.0 0.0
8
0.326313 0.673687 0.722896 0.277104 0.607724 0.392276 0.869382 0.130618
8
0.0 1.0 0.0 1.0 1.0 0.0 0.0 1.0
8
0.330482 0.669518 0.640388 0.359612 0.067367 0.932633 0.999019 0.000980801